[VALIDATOR STDOUT]
Checking plan: /home/jfan5/Safety-gen/runs/benchmark/optic/delivery_20260201_172908/delivery/optic_results/delivery_size35_packages1_seed35001.plan
Plan executed successfully - checking goal
Plan valid
Final value: 234 

Successful plans:
Value: 234
 /home/jfan5/Safety-gen/runs/benchmark/optic/delivery_20260201_172908/delivery/optic_results/delivery_size35_packages1_seed35001.plan 234
